p cnf 1547
-22 -484
-23 -487
-24 -490
-25 -493
-26 -496
-27 -499
-28 -502
-29 -505
-30 -508
-31 -511
-32 -514
-33 -517
-34 -520
-35 -523
-36 -526
-37 -529
-38 -532
-39 -535
-40 -538
-41 -541
-42 -544
-43 545
-44 546
-45 547
-46 548
-47 549
-48 550
-49 551
-50 552
-51 553
-52 554
-53 555
-54 556
-55 557
-56 -23
-56 -24
23 24 56
-57 -25
-57 -26
25 26 57
-58 -27
-58 -28
27 28 58
-59 -29
-59 -30
29 30 59
-60 -31
-60 -32
31 32 60
-61 -33
-61 -34
33 34 61
-62 -35
-62 -36
35 36 62
-63 -37
-63 -38
37 38 63
-64 -39
-64 -40
39 40 64
-65 -41
-65 -42
41 42 65
-66 -43
-66 -44
43 44 66
-67 -45
-67 -46
45 46 67
-68 -47
-68 -48
47 48 68
-69 -49
-69 -50
49 50 69
-70 -51
-70 -52
51 52 70
-71 -53
-71 -54
53 54 71
-72 56
-72 57
-56 -57 72
-73 58
-73 59
-58 -59 73
-74 60
-74 61
-60 -61 74
-75 62
-75 63
-62 -63 75
-76 64
-76 65
-64 -65 76
-77 66
-77 67
-66 -67 77
-78 68
-78 69
-68 -69 78
-79 70
-79 71
-70 -71 79
-80 72
-80 73
-72 -73 80
-81 74
-81 75
-74 -75 81
-82 76
-82 77
-76 -77 82
-83 78
-83 79
-78 -79 83
-84 80
-84 81
-80 -81 84
-85 82
-85 83
-82 -83 85
-86 84
-86 85
-84 -85 86
-87 -55
-87 86
55 -86 87
-88 -22
-88 23
22 -23 88
-89 22
-89 -23
-22 23 89
-90 -88
-90 -89
88 89 90
-91 22
-91 23
-22 -23 91
-92 -22
-92 -90
22 90 92
-93 22
-93 90
-22 -90 93
-94 -92
-94 -93
92 93 94
-95 22
-95 -90
-22 90 95
-96 -91
-96 -95
91 95 96
-97 -23
-97 24
23 -24 97
-98 23
-98 -24
-23 24 98
-99 -97
-99 -98
97 98 99
-100 23
-100 24
-23 -24 100
-101 96
-101 -99
-96 99 101
-102 -96
-102 99
96 -99 102
-103 -101
-103 -102
101 102 103
-104 -96
-104 -99
96 99 104
-105 -100
-105 -104
100 104 105
-106 -24
-106 25
24 -25 106
-107 24
-107 -25
-24 25 107
-108 -106
-108 -107
106 107 108
-109 24
-109 25
-24 -25 109
-110 105
-110 -108
-105 108 110
-111 -105
-111 108
105 -108 111
-112 -110
-112 -111
110 111 112
-113 -105
-113 -108
105 108 113
-114 -109
-114 -113
109 113 114
-115 -25
-115 26
25 -26 115
-116 25
-116 -26
-25 26 116
-117 -115
-117 -116
115 116 117
-118 25
-118 26
-25 -26 118
-119 114
-119 -117
-114 117 119
-120 -114
-120 117
114 -117 120
-121 -119
-121 -120
119 120 121
-122 -114
-122 -117
114 117 122
-123 -118
-123 -122
118 122 123
-124 -26
-124 27
26 -27 124
-125 26
-125 -27
-26 27 125
-126 -124
-126 -125
124 125 126
-127 26
-127 27
-26 -27 127
-128 123
-128 -126
-123 126 128
-129 -123
-129 126
123 -126 129
-130 -128
-130 -129
128 129 130
-131 -123
-131 -126
123 126 131
-132 -127
-132 -131
127 131 132
-133 -27
-133 28
27 -28 133
-134 27
-134 -28
-27 28 134
-135 -133
-135 -134
133 134 135
-136 27
-136 28
-27 -28 136
-137 132
-137 -135
-132 135 137
-138 -132
-138 135
132 -135 138
-139 -137
-139 -138
137 138 139
-140 -132
-140 -135
132 135 140
-141 -136
-141 -140
136 140 141
-142 -28
-142 29
28 -29 142
-143 28
-143 -29
-28 29 143
-144 -142
-144 -143
142 143 144
-145 28
-145 29
-28 -29 145
-146 141
-146 -144
-141 144 146
-147 -141
-147 144
141 -144 147
-148 -146
-148 -147
146 147 148
-149 -141
-149 -144
141 144 149
-150 -145
-150 -149
145 149 150
-151 -29
-151 30
29 -30 151
-152 29
-152 -30
-29 30 152
-153 -151
-153 -152
151 152 153
-154 29
-154 30
-29 -30 154
-155 150
-155 -153
-150 153 155
-156 -150
-156 153
150 -153 156
-157 -155
-157 -156
155 156 157
-158 -150
-158 -153
150 153 158
-159 -154
-159 -158
154 158 159
-160 -30
-160 31
30 -31 160
-161 30
-161 -31
-30 31 161
-162 -160
-162 -161
160 161 162
-163 30
-163 31
-30 -31 163
-164 159
-164 -162
-159 162 164
-165 -159
-165 162
159 -162 165
-166 -164
-166 -165
164 165 166
-167 -159
-167 -162
159 162 167
-168 -163
-168 -167
163 167 168
-169 -31
-169 32
31 -32 169
-170 31
-170 -32
-31 32 170
-171 -169
-171 -170
169 170 171
-172 31
-172 32
-31 -32 172
-173 168
-173 -171
-168 171 173
-174 -168
-174 171
168 -171 174
-175 -173
-175 -174
173 174 175
-176 -168
-176 -171
168 171 176
-177 -172
-177 -176
172 176 177
-178 -32
-178 33
32 -33 178
-179 32
-179 -33
-32 33 179
-180 -178
-180 -179
178 179 180
-181 32
-181 33
-32 -33 181
-182 177
-182 -180
-177 180 182
-183 -177
-183 180
177 -180 183
-184 -182
-184 -183
182 183 184
-185 -177
-185 -180
177 180 185
-186 -181
-186 -185
181 185 186
-187 -33
-187 34
33 -34 187
-188 33
-188 -34
-33 34 188
-189 -187
-189 -188
187 188 189
-190 33
-190 34
-33 -34 190
-191 186
-191 -189
-186 189 191
-192 -186
-192 189
186 -189 192
-193 -191
-193 -192
191 192 193
-194 -186
-194 -189
186 189 194
-195 -190
-195 -194
190 194 195
-196 -34
-196 35
34 -35 196
-197 34
-197 -35
-34 35 197
-198 -196
-198 -197
196 197 198
-199 34
-199 35
-34 -35 199
-200 195
-200 -198
-195 198 200
-201 -195
-201 198
195 -198 201
-202 -200
-202 -201
200 201 202
-203 -195
-203 -198
195 198 203
-204 -199
-204 -203
199 203 204
-205 -35
-205 36
35 -36 205
-206 35
-206 -36
-35 36 206
-207 -205
-207 -206
205 206 207
-208 35
-208 36
-35 -36 208
-209 204
-209 -207
-204 207 209
-210 -204
-210 207
204 -207 210
-211 -209
-211 -210
209 210 211
-212 -204
-212 -207
204 207 212
-213 -208
-213 -212
208 212 213
-214 -36
-214 37
36 -37 214
-215 36
-215 -37
-36 37 215
-216 -214
-216 -215
214 215 216
-217 36
-217 37
-36 -37 217
-218 213
-218 -216
-213 216 218
-219 -213
-219 216
213 -216 219
-220 -218
-220 -219
218 219 220
-221 -213
-221 -216
213 216 221
-222 -217
-222 -221
217 221 222
-223 -37
-223 38
37 -38 223
-224 37
-224 -38
-37 38 224
-225 -223
-225 -224
223 224 225
-226 37
-226 38
-37 -38 226
-227 222
-227 -225
-222 225 227
-228 -222
-228 225
222 -225 228
-229 -227
-229 -228
227 228 229
-230 -222
-230 -225
222 225 230
-231 -226
-231 -230
226 230 231
-232 -38
-232 39
38 -39 232
-233 38
-233 -39
-38 39 233
-234 -232
-234 -233
232 233 234
-235 38
-235 39
-38 -39 235
-236 231
-236 -234
-231 234 236
-237 -231
-237 234
231 -234 237
-238 -236
-238 -237
236 237 238
-239 -231
-239 -234
231 234 239
-240 -235
-240 -239
235 239 240
-241 -39
-241 40
39 -40 241
-242 39
-242 -40
-39 40 242
-243 -241
-243 -242
241 242 243
-244 39
-244 40
-39 -40 244
-245 240
-245 -243
-240 243 245
-246 -240
-246 243
240 -243 246
-247 -245
-247 -246
245 246 247
-248 -240
-248 -243
240 243 248
-249 -244
-249 -248
244 248 249
-250 -40
-250 41
40 -41 250
-251 40
-251 -41
-40 41 251
-252 -250
-252 -251
250 251 252
-253 40
-253 41
-40 -41 253
-254 249
-254 -252
-249 252 254
-255 -249
-255 252
249 -252 255
-256 -254
-256 -255
254 255 256
-257 -249
-257 -252
249 252 257
-258 -253
-258 -257
253 257 258
-259 -41
-259 42
41 -42 259
-260 41
-260 -42
-41 42 260
-261 -259
-261 -260
259 260 261
-262 41
-262 42
-41 -42 262
-263 258
-263 -261
-258 261 263
-264 -258
-264 261
258 -261 264
-265 -263
-265 -264
263 264 265
-266 -258
-266 -261
258 261 266
-267 -262
-267 -266
262 266 267
-268 -42
-268 43
42 -43 268
-269 42
-269 -43
-42 43 269
-270 -268
-270 -269
268 269 270
-271 42
-271 43
-42 -43 271
-272 267
-272 -270
-267 270 272
-273 -267
-273 270
267 -270 273
-274 -272
-274 -273
272 273 274
-275 -267
-275 -270
267 270 275
-276 -271
-276 -275
271 275 276
-277 -43
-277 44
43 -44 277
-278 43
-278 -44
-43 44 278
-279 -277
-279 -278
277 278 279
-280 43
-280 44
-43 -44 280
-281 276
-281 -279
-276 279 281
-282 -276
-282 279
276 -279 282
-283 -281
-283 -282
281 282 283
-284 -276
-284 -279
276 279 284
-285 -280
-285 -284
280 284 285
-286 -44
-286 45
44 -45 286
-287 44
-287 -45
-44 45 287
-288 -286
-288 -287
286 287 288
-289 44
-289 45
-44 -45 289
-290 285
-290 -288
-285 288 290
-291 -285
-291 288
285 -288 291
-292 -290
-292 -291
290 291 292
-293 -285
-293 -288
285 288 293
-294 -289
-294 -293
289 293 294
-295 -45
-295 46
45 -46 295
-296 45
-296 -46
-45 46 296
-297 -295
-297 -296
295 296 297
-298 45
-298 46
-45 -46 298
-299 294
-299 -297
-294 297 299
-300 -294
-300 297
294 -297 300
-301 -299
-301 -300
299 300 301
-302 -294
-302 -297
294 297 302
-303 -298
-303 -302
298 302 303
-304 -46
-304 47
46 -47 304
-305 46
-305 -47
-46 47 305
-306 -304
-306 -305
304 305 306
-307 46
-307 47
-46 -47 307
-308 303
-308 -306
-303 306 308
-309 -303
-309 306
303 -306 309
-310 -308
-310 -309
308 309 310
-311 -303
-311 -306
303 306 311
-312 -307
-312 -311
307 311 312
-313 -47
-313 48
47 -48 313
-314 47
-314 -48
-47 48 314
-315 -313
-315 -314
313 314 315
-316 47
-316 48
-47 -48 316
-317 312
-317 -315
-312 315 317
-318 -312
-318 315
312 -315 318
-319 -317
-319 -318
317 318 319
-320 -312
-320 -315
312 315 320
-321 -316
-321 -320
316 320 321
-322 -48
-322 49
48 -49 322
-323 48
-323 -49
-48 49 323
-324 -322
-324 -323
322 323 324
-325 48
-325 49
-48 -49 325
-326 321
-326 -324
-321 324 326
-327 -321
-327 324
321 -324 327
-328 -326
-328 -327
326 327 328
-329 -321
-329 -324
321 324 329
-330 -325
-330 -329
325 329 330
-331 -49
-331 50
49 -50 331
-332 49
-332 -50
-49 50 332
-333 -331
-333 -332
331 332 333
-334 49
-334 50
-49 -50 334
-335 330
-335 -333
-330 333 335
-336 -330
-336 333
330 -333 336
-337 -335
-337 -336
335 336 337
-338 -330
-338 -333
330 333 338
-339 -334
-339 -338
334 338 339
-340 -50
-340 51
50 -51 340
-341 50
-341 -51
-50 51 341
-342 -340
-342 -341
340 341 342
-343 50
-343 51
-50 -51 343
-344 339
-344 -342
-339 342 344
-345 -339
-345 342
339 -342 345
-346 -344
-346 -345
344 345 346
-347 -339
-347 -342
339 342 347
-348 -343
-348 -347
343 347 348
-349 -51
-349 52
51 -52 349
-350 51
-350 -52
-51 52 350
-351 -349
-351 -350
349 350 351
-352 51
-352 52
-51 -52 352
-353 348
-353 -351
-348 351 353
-354 -348
-354 351
348 -351 354
-355 -353
-355 -354
353 354 355
-356 -348
-356 -351
348 351 356
-357 -352
-357 -356
352 356 357
-358 -52
-358 53
52 -53 358
-359 52
-359 -53
-52 53 359
-360 -358
-360 -359
358 359 360
-361 52
-361 53
-52 -53 361
-362 357
-362 -360
-357 360 362
-363 -357
-363 360
357 -360 363
-364 -362
-364 -363
362 363 364
-365 -357
-365 -360
357 360 365
-366 -361
-366 -365
361 365 366
-367 -53
-367 54
53 -54 367
-368 53
-368 -54
-53 54 368
-369 -367
-369 -368
367 368 369
-370 53
-370 54
-53 -54 370
-371 366
-371 -369
-366 369 371
-372 -366
-372 369
366 -369 372
-373 -371
-373 -372
371 372 373
-374 -366
-374 -369
366 369 374
-375 -370
-375 -374
370 374 375
-376 -54
-376 55
54 -55 376
-377 54
-377 -55
-54 55 377
-378 -376
-378 -377
376 377 378
-379 54
-379 55
-54 -55 379
-380 375
-380 -378
-375 378 380
-381 -375
-381 378
375 -378 381
-382 -380
-382 -381
380 381 382
-383 -375
-383 -378
375 378 383
-384 -379
-384 -383
379 383 384
-385 22
-385 -94
-22 94 385
-386 -22
-386 24
22 -24 386
-387 -385
-387 -386
385 386 387
-388 22
-388 -103
-22 103 388
-389 -22
-389 25
22 -25 389
-390 -388
-390 -389
388 389 390
-391 22
-391 -112
-22 112 391
-392 -22
-392 26
22 -26 392
-393 -391
-393 -392
391 392 393
-394 22
-394 -121
-22 121 394
-395 -22
-395 27
22 -27 395
-396 -394
-396 -395
394 395 396
-397 22
-397 -130
-22 130 397
-398 -22
-398 28
22 -28 398
-399 -397
-399 -398
397 398 399
-400 22
-400 -139
-22 139 400
-401 -22
-401 29
22 -29 401
-402 -400
-402 -401
400 401 402
-403 22
-403 -148
-22 148 403
-404 -22
-404 30
22 -30 404
-405 -403
-405 -404
403 404 405
-406 22
-406 -157
-22 157 406
-407 -22
-407 31
22 -31 407
-408 -406
-408 -407
406 407 408
-409 22
-409 -166
-22 166 409
-410 -22
-410 32
22 -32 410
-411 -409
-411 -410
409 410 411
-412 22
-412 -175
-22 175 412
-413 -22
-413 33
22 -33 413
-414 -412
-414 -413
412 413 414
-415 22
-415 -184
-22 184 415
-416 -22
-416 34
22 -34 416
-417 -415
-417 -416
415 416 417
-418 22
-418 -193
-22 193 418
-419 -22
-419 35
22 -35 419
-420 -418
-420 -419
418 419 420
-421 22
-421 -202
-22 202 421
-422 -22
-422 36
22 -36 422
-423 -421
-423 -422
421 422 423
-424 22
-424 -211
-22 211 424
-425 -22
-425 37
22 -37 425
-426 -424
-426 -425
424 425 426
-427 22
-427 -220
-22 220 427
-428 -22
-428 38
22 -38 428
-429 -427
-429 -428
427 428 429
-430 22
-430 -229
-22 229 430
-431 -22
-431 39
22 -39 431
-432 -430
-432 -431
430 431 432
-433 22
-433 -238
-22 238 433
-434 -22
-434 40
22 -40 434
-435 -433
-435 -434
433 434 435
-436 22
-436 -247
-22 247 436
-437 -22
-437 41
22 -41 437
-438 -436
-438 -437
436 437 438
-439 22
-439 -256
-22 256 439
-440 -22
-440 42
22 -42 440
-441 -439
-441 -440
439 440 441
-442 22
-442 -265
-22 265 442
-443 -22
-443 43
22 -43 443
-444 -442
-444 -443
442 443 444
-445 22
-445 -274
-22 274 445
-446 -22
-446 44
22 -44 446
-447 -445
-447 -446
445 446 447
-448 22
-448 -283
-22 283 448
-449 -22
-449 45
22 -45 449
-450 -448
-450 -449
448 449 450
-451 22
-451 -292
-22 292 451
-452 -22
-452 46
22 -46 452
-453 -451
-453 -452
451 452 453
-454 22
-454 -301
-22 301 454
-455 -22
-455 47
22 -47 455
-456 -454
-456 -455
454 455 456
-457 22
-457 -310
-22 310 457
-458 -22
-458 48
22 -48 458
-459 -457
-459 -458
457 458 459
-460 22
-460 -319
-22 319 460
-461 -22
-461 49
22 -49 461
-462 -460
-462 -461
460 461 462
-463 22
-463 -328
-22 328 463
-464 -22
-464 50
22 -50 464
-465 -463
-465 -464
463 464 465
-466 22
-466 -337
-22 337 466
-467 -22
-467 51
22 -51 467
-468 -466
-468 -467
466 467 468
-469 22
-469 -346
-22 346 469
-470 -22
-470 52
22 -52 470
-471 -469
-471 -470
469 470 471
-472 22
-472 -355
-22 355 472
-473 -22
-473 53
22 -53 473
-474 -472
-474 -473
472 473 474
-475 22
-475 -364
-22 364 475
-476 -22
-476 54
22 -54 476
-477 -475
-477 -476
475 476 477
-478 22
-478 -373
-22 373 478
-479 -22
-479 55
22 -55 479
-480 -478
-480 -479
478 479 480
-481 22
-481 -382
-22 382 481
-482 1
-482 87
-1 -87 482
-483 -87
-483 88
87 -88 483
-484 -482
-484 -483
482 483 484
-485 2
-485 87
-2 -87 485
-486 -87
-486 -387
87 387 486
-487 -485
-487 -486
485 486 487
-488 3
-488 87
-3 -87 488
-489 -87
-489 -390
87 390 489
-490 -488
-490 -489
488 489 490
-491 4
-491 87
-4 -87 491
-492 -87
-492 -393
87 393 492
-493 -491
-493 -492
491 492 493
-494 5
-494 87
-5 -87 494
-495 -87
-495 -396
87 396 495
-496 -494
-496 -495
494 495 496
-497 6
-497 87
-6 -87 497
-498 -87
-498 -399
87 399 498
-499 -497
-499 -498
497 498 499
-500 7
-500 87
-7 -87 500
-501 -87
-501 -402
87 402 501
-502 -500
-502 -501
500 501 502
-503 8
-503 87
-8 -87 503
-504 -87
-504 -405
87 405 504
-505 -503
-505 -504
503 504 505
-506 9
-506 87
-9 -87 506
-507 -87
-507 -408
87 408 507
-508 -506
-508 -507
506 507 508
-509 10
-509 87
-10 -87 509
-510 -87
-510 -411
87 411 510
-511 -509
-511 -510
509 510 511
-512 11
-512 87
-11 -87 512
-513 -87
-513 -414
87 414 513
-514 -512
-514 -513
512 513 514
-515 12
-515 87
-12 -87 515
-516 -87
-516 -417
87 417 516
-517 -515
-517 -516
515 516 517
-518 13
-518 87
-13 -87 518
-519 -87
-519 -420
87 420 519
-520 -518
-520 -519
518 519 520
-521 14
-521 87
-14 -87 521
-522 -87
-522 -423
87 423 522
-523 -521
-523 -522
521 522 523
-524 15
-524 87
-15 -87 524
-525 -87
-525 -426
87 426 525
-526 -524
-526 -525
524 525 526
-527 16
-527 87
-16 -87 527
-528 -87
-528 -429
87 429 528
-529 -527
-529 -528
527 528 529
-530 17
-530 87
-17 -87 530
-531 -87
-531 -432
87 432 531
-532 -530
-532 -531
530 531 532
-533 18
-533 87
-18 -87 533
-534 -87
-534 -435
87 435 534
-535 -533
-535 -534
533 534 535
-536 19
-536 87
-19 -87 536
-537 -87
-537 -438
87 438 537
-538 -536
-538 -537
536 537 538
-539 20
-539 87
-20 -87 539
-540 -87
-540 -441
87 441 540
-541 -539
-541 -540
539 540 541
-542 21
-542 87
-21 -87 542
-543 -87
-543 -444
87 444 543
-544 -542
-544 -543
542 543 544
-545 -87
-545 -447
87 447 545
-546 -87
-546 -450
87 450 546
-547 -87
-547 -453
87 453 547
-548 -87
-548 -456
87 456 548
-549 -87
-549 -459
87 459 549
-550 -87
-550 -462
87 462 550
-551 -87
-551 -465
87 465 551
-552 -87
-552 -468
87 468 552
-553 -87
-553 -471
87 471 553
-554 -87
-554 -474
87 474 554
-555 -87
-555 -477
87 477 555
-556 -87
-556 -480
87 480 556
-557 -87
-557 481
87 -481 557
-558 -55
-558 384
55 -384 558
-559 22
-559 -558
-22 558 559
559
